
 102   30
  10   10   10   10   10   10   10   10   10   10   10   10   10   10   10   10   10   10   10   10   10   10   10   10   10   10   10   10   10   10

   0   0   0   0   0   0   0   0   0   0   0   0   0   0   0   0   0   0   0   0   0   0   0   0   0   0   0   0   0   0   0  24 2 3 4 5 6 7 8 9 10 11 12 13 15 16 17 18 19 20 22 23 29 30 31 46 
  10   0   3   0   0   0   0   0   0   0   0   1   0   0   0   0   0   0   0   0   0   0   0   1   0   1   0   0   0   1   0  14 68 63 62 59 53 52 51 49 48 45 41 34 33 14 
   4   3   0   0   0   0   0   0   0   0   0   0   0   0   0   0   0   0   0   0   0   0   0   0   1   0   0   0   0   0   0  14 78 77 68 59 58 56 50 48 41 38 33 32 25 21 
   1   0   0   0   0   0   0   0   0   1   0   0   0   0   0   0   0   0   0   0   0   0   0   0   0   0   0   0   0   0   0  25 101 100 99 78 77 68 67 66 59 58 57 56 55 53 52 50 49 48 43 42 41 39 37 33 32 
   4   0   0   0   0   0   0   0   0   6   0   0   0   0   0   0   0   0   0   0   2   0   0   0   0   0   0   0   0   0   0  14 77 76 68 59 58 55 54 44 39 36 34 33 27 21 
   1   0   6   0   0   0   0   1   0   0   0   5   0   0   0   0   0   0   0   0   2   0   0   0   0   0   0   0   0   0   0  15 77 73 68 67 63 60 59 55 54 53 52 51 40 33 27 
   5   0   9   0   0   0   0   7   0   0   0  10   0   0   0   0   0   4   0   0   0   0   0   0   0   0   0   0   0   0   1  10 101 77 76 59 58 56 47 42 25 24 
   2   0   7   0   0   0   0   0   0   9   0   0   0   0   2   0   0   0   3   0   0   0   0   6   0   0   0   0   0   0   0  15 101 100 99 98 76 74 68 67 66 55 51 44 42 39 24 
   5   0   0   0   2   0   0   0   0   0   0   0   0   0   0   0   0   0   0   0   0   0   2   0   0   0   0   0   0   0   0  13 99 77 76 75 74 67 60 57 51 43 37 33 26 
   4   0   0   0   0   0   0   0   0   0   0   0   0   0   5   0   0   0   0   1   0   0   0   0   0   0   0   0   0   0   0  16 100 99 98 75 73 72 68 67 66 60 59 57 55 52 43 35 
   7   0   0   0   0   0   1   0   0   0   0   0   0   0   0   0   0   0   0   0   0   0   0   0   0   0   0   3   0   0   0  13 99 78 77 73 62 60 57 54 50 44 39 33 28 
   6   7   3   0   7   0   0   0   0   0   0   0   0   0   7   0   0   0   0   4   0   0   0   8   0   0   0   4   0   0   4  20 101 100 99 97 96 92 78 77 75 74 72 67 61 60 56 55 53 52 41 37 
   1   0   0   0   5   0   0   0   0   0   0   0   0   0   0   0   0   0   0   0   0   0   0   0   0   0   0   0   2   9   0  17 99 97 94 90 78 77 76 75 74 73 68 54 52 49 45 44 36 
   3   0   0   1   0   0   0   0   1   0   0   4   0   0   0   0   0   3   0   0   0   0   0   6   0   0   0   0   0   0   0  18 100 99 97 96 78 77 76 73 72 67 66 61 60 56 55 54 50 32 
   7   0   0   0   0   0   0   0   0   0   1   0   0   0   0   0   0   0   0   0   0   0   4   0   0   0   0   0   0   0   9  15 101 98 97 77 75 73 61 58 56 55 50 47 44 42 40 
   5   0   0   0   0   0   0   0   0   0   0   0   0   0   6   1   4   0   5   0   0   0   0   0   0   7   0   0   0   0   0  18 101 100 99 98 97 96 93 76 73 72 71 70 66 61 60 55 50 49 
   3   0   5   0   0   2   0   0   0   0   6   0   0   0   0   0   0   0   0   0   0   0   0   0   7   0   0   0   4   6   0  15 99 98 97 94 77 74 66 65 61 60 57 55 52 44 39 
   2   0   0   5   0   0   4   0   0   3   4   0   0   0   0   0   0   0   0   0   0   0   6   0   0   0   0  10   0   0   0  13 91 90 89 75 74 73 71 70 62 61 60 45 43 
   6   7   0   0   8   0   0   0   0   0   0   0   0   0   0   0   0   5   0   0   0   0   0   0   0  10   0   0   0   0   0  11 97 93 76 75 74 67 58 49 44 42 39 
   6   0   0   0   0   5   0   0   0   0   0   0   0   0   0   0   0   0   0   0   0   0   0   6   0   0   0   8   0   0   0  16 101 97 96 95 93 78 77 75 73 69 68 62 60 59 55 39 
   3   0   0   0   0   0   0   0   4   0   0   0   0   0   0   0   5   0   0   0   0   0   0   0   0   0   1   0   0   5   0  15 100 98 97 90 74 73 70 69 67 64 63 62 57 52 49 
   5   0   0   0   0   0   0   0   0   0   0   0   0   0   0   0   0   0   0   0   0   0   0   0   0   0   0   0   0   0   0  14 97 95 94 91 89 76 73 71 70 67 65 60 59 45 
   8   2   0   0   0   0   0   0   6   5   0   0   0   1   0   0   0   0   0   0   0   0   0   0   0   0   0   0  10   0   0   8 72 70 62 57 55 52 50 42 
  10   0   0   0   0   7   0   5   0   0   0   0   0   0   8   0   6   0   0   0   8   0   0   0   0   0   0   0   0   0   0  11 97 90 88 72 70 69 65 57 52 50 48 
   4   0   6   6   0   0   9   0   0   0   0   9   0   0   0   0   0   0   0   0   0   0   0   0   0   0   2   0   0   0   0  12 99 96 75 74 72 71 69 67 66 60 55 39 
   5   0   0   0   0   0   0   0   0   0   0   0   0   7   0   0   0   0   0   0   0   0   0   0   0   0   5   0   0   0   6   8 92 73 72 69 66 62 55 41 
   7   0   0   0   0   0   0   0   0   0   0   0   0   0   0   0   5   0   0   0   0   0   0   0   0   0   0   0   0   0   0  16 98 96 93 91 90 89 88 87 86 84 78 75 71 66 64 56 
   1   0   0   0   0   0   0   0   0   0   0   0   2   0   0   0   5   0   7   0   0   1   0   0   0   0   0   0   0   0   0  12 95 93 88 86 76 75 74 69 68 65 64 55 
  10   0   0   0   0   0   0   0   0   0   0   0   5   0   0   0   6   0   0   0   0   0   0   0   0   2   0   0   0   0   0  16 95 94 93 90 89 88 87 86 84 83 76 70 69 66 65 60 
   1   0   0   0   0   0   0   5   0   0   0   0   0   0   0   0   8   0   0   0  10   0   7   0   0   0   0   0   0   0   5  16 99 97 95 93 90 89 87 86 84 83 76 72 71 69 65 64 
  10   0   0   0   0   0   0   0   0   0   0   0   0   0   0   0   0   0   0   0   0   0   0   0   0   0   0   0   0   0   0  12 96 95 94 93 90 89 86 76 71 65 62 60 
   9   0   0   0   0   0   0   7   0   0   0   0   0   0   8   0   0   0   0   0   0   0   0   0   0   0   0   5   0   0   0  14 98 92 91 90 89 88 87 86 85 81 75 74 69 65 
   4   0   0   6   0   0   0   7   8   0   0   0   8   4   4   0  10   0   0   0   0   0   0   0   0   0   0   0   0   0   0  10 97 94 93 89 87 83 72 65 64 61 
  10   0   0   0   0   5   0   0   8   0   6   0   0   4   0   0   7   0   0   0   8   0   3   9   0   0   0   5   0   0   0  10 95 94 93 88 87 75 73 70 69 60 
  10   2   0   0   0   0   0   0   0   0   0   0   0   0   0   0   5   0   0   0   0   0   8   0   0   0   0   0   0   0   6  10 97 96 91 90 85 81 77 76 62 61 
   9   0   0   0   0   0   0   0   0   0  10   0   0   0   0   0   0   0   0   0   0   0   0   0   0   0   0   0   3   0   6  11 100 93 92 87 85 82 81 72 70 69 62 
   6   0   0   9   0   0   8   0   0   4   0   0   0   0   0   0   3   0   0   0   0   0   0   0   0   0   0   0   0   0   0  10 95 88 87 86 83 82 73 70 69 64 
   9   0  10   0   8   0   0   0   0   0   0   0   0   8   0   0   4   0   0   0   6   0   0   0   0   0   0   0   0   0   0  12 93 91 90 89 87 86 84 83 82 81 76 69 
   9   0   0   0   0   0   0   0   0   9   5   6   0   0   0   0   0   0   0   0   0   0   0   0   5   0   0   0   0   5   0  11 92 89 88 87 86 84 83 82 79 70 64 
   4   0   5   0   0   0   0   0   5   0   0   0   0   0   0   7   0   0   0   0   0   0   0   0   0   0   0   0   0   0   0   9 94 93 89 82 81 78 72 69 62 
   9   0   0   0   0   0   0   0   0   0   0   0   0   0   8   4   0   0   0   0   0   7   0   0   0   0   0   0   0   0   0   9 98 94 88 87 86 83 71 70 64 
  10   0   0   0   0   0   0   0   0   0   0   7   0   0   0   0   0   0   0   0   0   0   0   0   0   0   0   6   0   0   0   7 94 90 89 87 69 65 60 
   7   0   0   0   0   0   0   0  10   0   0   0   0   4   0   0   0   0   0   0   4   0   0   8   0   0   0   5   0   0   0   9 95 94 93 92 88 86 83 69 65 
   4   9   0   3   3   7   0   7   5   6   6   0  10   0   0   0   0   0   0   6   0   4   9   0   0   0   4   0   0   0   0   8 96 95 91 83 82 80 71 64 
   8   0   0   0   0   0   0   0   0   0   0   5   0   7   0   0   6   0   0   0   0   0   0   0   0   0   0   0   0   0   0   8 100 98 88 87 86 72 69 66 
   6   0   0   0   0   0   0   0   0   0   0   0   0   0   0   0   0   0   0   0   0   0   0   0   0   0   0   6   0   0   0   8 96 94 90 83 81 79 73 65 
   4   0   0   0   0   0   0   0   0   0   5   0   0   0   0   0   6   0  10   0   0   0   0   0   0   0   0   0   0   0   0   8 92 86 85 84 83 81 72 69 
   1   0   6   0   8   0   0   0   0   0   0   0   0   0   4   0   0   0   0   0   0   0   0   0   0   0  10   0   0   0   6   7 91 89 87 86 79 73 64 
   6   0   0   0   0   0   0   0   0   0   0   0   9   0   0   2   0   0   0   0   0   0   0   0   7   0   0   0   0   0   8   7 95 91 87 86 84 79 65 
  10   0   0   0   0   0   0   5   0   0   0   0   0   0   0   0   0   0   0   0   0   0  10   0   0   0   0   0   0   0   0   8 95 94 87 86 85 83 81 79 
   2   0   0   0   7   0   0   0   0   0   4   0   0   9   0   0   0   0   0   0   0   0   0   0   0   0   0   0   5   0   8   8 91 89 85 84 83 82 81 79 
  10   0   0   0   0   0   0   0   0   0   0   0   6   0   0   0   0   0   0   0   0   7   8   7   0   7  10   0   0   0   0   7 93 89 86 83 82 81 71 
   3   0   7   0   0   0   9   0   0  10   3   0   0   0   0   0   0   6   0   0   0   6   0   0   0   0   0   0   0   0   0   7 94 88 85 84 81 80 79 
   3   0   0   7   0   0   0   0   0   0   0   0   4   0   0   0   0   0   0   0   0   0   6   0   0   0   0   0   0   0   0   6 89 84 83 81 80 71 
   1   0   0   0   0   6   0   0   0   0   0   0   0   0   0   0   0   0   0   0   0   0   0   0   0   0   0   0   0   7   0   6 91 90 89 87 82 79 
   9   0   8   0   0   0   0   0   7   0   0   0   0   0   0   0   0   0   0   0   0   0   0   0   0   0   0   6   0   0   0   3 70 69 65 
   7   0   8   0   0   0   0   0   0   0   0   0   0   0   0   0   0   0   4   0   0   6   0   0   0   0   0   0   0   0   0   5 96 86 82 81 80 
   9   0   0   7   0   0   0  10   0   0   9   5   0   0   0  10   0   0   4   9   0   0   0   5   0   0   0   0   0   0   0   5 84 82 81 80 79 
   2   0   0   0   0   0   0   0   0   0   0   0   0   0   4   0   0   0   0   0   0   0   0   0   0   0   0   0   0   0   0   4 92 85 82 74 
   9   0   5   0   6   0   0   0   0   0   0   0   0   0   0   0   0  10   0   0   0   0   0   0   0   0   0   0   5   0   0   3 82 79 64 
  10   0   0   4   0   0   0   0   0   0   0   0   5   0   0   0   0   0   0   0   7   0   0   0   0   0   0   0   7   0   0   3 88 86 69 
   2   8   2   0   0   0   0   0   0   0   0   0   0   0   0   0   0   0   0   0   0   8   0   0   0   0   0   0   8   0   0   3 88 84 83 
   2   8   0   0   0   0   0   0   0   0   0   0   0   0   0   0   0   0   0   6   0   0   0   0   0   0   0   4   0   0   0   3 99 87 81 
   2   0   0   0   0   0   0   0   0   0   0   8   0   0   0   0   0   0   0   0   0   0   2   0   0   7   0   0   0   0   0   2 85 81 
   2   0   0   0   0   0   0   0   0   6   0   0   0   0   6   0   0   0   0   0   7   0   0   0   0   0   0   0   0   0   3   2 82 80 
   3   4   0   0   0   0   0   0   0   0   0   0   0   0   0   0   0   0  10   0   0   0   0   0   0   0   0   0   0   0   6   2 81 80 
   1   0   0   9   0   0   1   0   0   0  10   0   0   0  10   0   0   0   4   0   0   0   0   0   7   0   0   0   5   0   0   2 88 83 
   4   0   0   4   0   0   0   0   0   0   0   0   0   0   0   0   0   0   0   7   0   0   0   0   0   5   0   5   7   0   0   2 84 80 
   2   0   4   0   0   0   0   0   0   0   0   0   0   0   0   0   7   0   0   0   0   0   0   0   0   0   0   0   6   0   0   1 79 
   2   0   5   0   0   3   0   0   0   0   0   0   0   0   0   0   0   0   0   0   0   0   7   0   0   0   0   0   0   0   7   1 80 
   4   0   9   7   0   0   0   4   0   0   0   0   6   0   0   0   0   0   0   0   0   5   0   0   0   0   0   0   9   0   6   1 79 
   4   8   0   0   9   0   0   0   0   0   0   0   6   0   0   7   0   0   0   5   0   0   0   0   0   0   0  10   0   0   0   1 80 
   8   6   0   0   0   9   0   0   0   7   0   0   0   0   0   0   0   0   0   0   0   0   0   0   0   0   0   0   0   0   0   1 84 
   9   0   0   0   0   0   0   0   0   0   0   0   0  10   0   0   0   0   0   4   0   5   0   0   0   0   9   0   0   0   0   1 84 
  10   0   0  10   0   0   0   0   0   0   0   0   0   0   0   0   0   0   0   0   0   0   0   0   0   0   0   0   0   0   4   1 83 
   6   0   0   0   0   0   0   0   0   0   0   0   0   0   0   5   0   0   0   0   0   0   0   0   0   0   0   0   0   0   0   1 92 
   7   0   0   0   0   0   0   0   0   0   0   0   0   0   0   0   4   0   0   0   0   0   0   0   0   0   0   0   0   0   7   1 80 
   2   0   0   0   0   0   0   0   0   0   0   0   0   0   0   0   0   0   0   0   0   4   0   0   0   0   0   7   0   0   0   1 80 
   9   0   0   0   0   0   0   4   0   0   0   0   0   0   6   0   5   0   0   0   0   0   0   0   0   7   0   9   0   0   0   1 102
   6   0   8   0   0   0   0   0   0   0   0   0   0   0   0   0   0   0   0   0   0   8   0   0   0   0   0   0   0   0   0   1 102
   4   0   0   0   0   0   9   0   0   0   4   0   0   0   0   0   0   0   4   0   0   8   0   0   0   0   0   0   0   0   0   1 102
   7   0   0   0   0   0   0   0   0   5   0   0   0   0   0   0   0   0   0   8   0   8   0   0   0  10   0   0   0   0   0   1 102
   5   0   0   0   4   0   7   0   0   0   0   0   0   0   0   0   0   0   0   6   0   0   0   0   7   0   0   0   0   6   0   1 102
   6   0   0   0   0   0   0   0   0   0   0   0   0   0   0  10   0   0   0   0   0   0   0   0   0   0   0   0   0   0   0   1 102
   8   6   0   0   0   0   0   0   0   0   0   0   0   0   7   0   0   0   0   0   0   0   0   0   0   0   0   0   0   8   0   1 102
   5   0   0   7   3   0   0   0   0   0   0   0   0   0   0   0   0   0   8   0   0   0   0   6   0   0   0   0   7   0   0   1 102
   4   0   0   0   0   0   0   0   0   0   0   0   0   0   0   0   0   0   0   0   0   0   0   0   0   0   0   0   6   0   0   1 102
  10   0   0   0   0   6   0   0   0   5   0   0   5   0   0   0   0   0  10   0   0   0   0   0   0   0   6   0   0   5   7   1 102
   2   4   0   0   0   0   0   0   0   0   0   0   0   0   0   0   0   0   0   0   0   0   0   0   0   0   0   0   0   0   0   1 102
   5   0   0   0   0   0   0   0   0   0   0   0   0   0   0   0   8   6   0   0   0   0   0   0   0   0   0   0   0   0   9   1 102
   5   0   0   0   4   0   0   0   0   6   0   5   0   0   0   8   0   0   0   0   0   0   0   0   0   0   0   0   0   0   0   1 102
   3   0   0   0   0   0   0   7   0   0   9   0   0   6   0   0   0   0   0   8   0   0   0   0   0   0   0   0   0   0   0   1 102
   2   0   4   0   6   0   6   0   0   0   0   6   0   0   0   0   0   0   0   0   0   7   0   4   0   0   0   0   0   8   0   1 102
   1   0   0   0   0  10   0   0   0   0   0   0   0   0   0   0   0   0   0   0   0   0   0   0  10   0   7   0   0   0   0   1 102
  10   0   0   0   0   0   0   5   0   0   8   0   6   0   0   0   0   0   6   0   0   0   0   0   0   0   0   6   0   0   0   1 102
   1   0   0   0   0   4   0  10   0   0   0  10   0   0   0   6   7   8   0   0   0   0   0   0   0   0   0   0   0   0   0   1 102
   4   0   0   4   0   0   0   0   6   0   0   0   0   0   0   0   0   0   0   0   0   0   0   0   0   0   0   0   0   0   0   1 102
   2   0   6   0   0   8   0   0   0   0   0   0   0   0   4   0   5   0   3   0   0   0   0   0   4   4   0   0   0   0   0   1 102
   6   0   0   0  10   0   0   0   0   0   0   0   0   0   7   0   0   0   0   8   0   0   0   0   0   0   0   0   0   0   0   1 102
   8  10   0   0   0   0   0   0   0   8   0   0   0   0   0   0   0   0   0   0   0   0   0   0   0   0   0   3   0   6   0   1 102
   1   0   0   7   0   0   0   0   0   6   0   3   0   0   0   0  10   0   0   0   0   0   0   0   0   0   0   0   0   0   0   1 102
   0   0   0   0   0   0   0   0   0   0   0   0   0   0   0   0   0   0   0   0   0   0   0   0   0   0   0   0   0   0   0   0 
